
Gurobi 7.5.2 (win64, Python) logging started 04/13/18 19:57:34

Academic license - for non-commercial use only
Optimize a model with 1192 rows, 4160 columns and 8240 nonzeros
Variable types: 4080 continuous, 80 integer (0 binary)
Coefficient statistics:
  Matrix range     [1e+00, 1e+02]
  Objective range  [5e+03, 8e+04]
  Bounds range     [0e+00, 0e+00]
  RHS range        [3e-01, 8e+04]
Presolve removed 1192 rows and 4160 columns
Presolve time: 0.01s
Presolve: All rows and columns removed

Explored 0 nodes (0 simplex iterations) in 0.01 seconds
Thread count was 1 (of 4 available processors)

Solution count 1: 1.90734e+08 

Optimal solution found (tolerance 1.00e-04)
Best objective 1.907341055300e+08, best bound 1.907341055300e+08, gap 0.0000%

Gurobi 7.5.2 (win64, Python) logging started 04/13/18 19:57:40

Academic license - for non-commercial use only
Changed value of parameter MIPGap to 1e-06
   Prev: 0.0001  Min: 0.0  Max: 1e+100  Default: 0.0001
Optimize a model with 11521 rows, 13550 columns and 91212 nonzeros
Variable types: 13500 continuous, 50 integer (50 binary)
Coefficient statistics:
  Matrix range     [1e+00, 1e+06]
  Objective range  [1e+00, 1e+00]
  Bounds range     [1e+00, 1e+00]
  RHS range        [1e+00, 3e+05]
Presolve removed 8822 rows and 1348 columns
Presolve time: 0.13s
Presolved: 2699 rows, 12202 columns, 29011 nonzeros
Variable types: 12152 continuous, 50 integer (50 binary)
Found heuristic solution: objective 39.0000000

Root relaxation: objective 3.409764e+00, 3660 iterations, 0.13 seconds

    Nodes    |    Current Node    |     Objective Bounds      |     Work
 Expl Unexpl |  Obj  Depth IntInf | Incumbent    BestBd   Gap | It/Node Time

     0     0    3.40976    0    3   39.00000    3.40976  91.3%     -    0s
H    0     0                       5.0000000    3.40976  31.8%     -    0s
     0     0    3.40976    0    6    5.00000    3.40976  31.8%     -    0s
H    0     0                       4.0000000    3.40976  14.8%     -    0s

Cutting planes:
  Implied bound: 4
  MIR: 3
  Flow cover: 3

Explored 1 nodes (4652 simplex iterations) in 0.49 seconds
Thread count was 4 (of 4 available processors)

Solution count 3: 4 5 39 

Optimal solution found (tolerance 1.00e-06)
Best objective 4.000000000000e+00, best bound 4.000000000000e+00, gap 0.0000%

Gurobi 7.5.2 (win64, Python) logging started 04/13/18 19:57:44

Academic license - for non-commercial use only
Changed value of parameter MIPGap to 1e-08
   Prev: 0.0001  Min: 0.0  Max: 1e+100  Default: 0.0001
Optimize a model with 1855 rows, 4283 columns and 15275 nonzeros
Variable types: 4103 continuous, 180 integer (100 binary)
Coefficient statistics:
  Matrix range     [1e+00, 3e+05]
  Objective range  [1e+00, 1e+00]
  Bounds range     [1e+00, 5e+00]
  RHS range        [3e-01, 8e+04]
Presolve removed 315 rows and 55 columns
Presolve time: 0.01s
Presolved: 1540 rows, 4228 columns, 9928 nonzeros
Variable types: 4068 continuous, 160 integer (80 binary)

Root relaxation: objective 2.532198e+08, 417 iterations, 0.01 seconds

    Nodes    |    Current Node    |     Objective Bounds      |     Work
 Expl Unexpl |  Obj  Depth IntInf | Incumbent    BestBd   Gap | It/Node Time

     0     0 2.5322e+08    0   12          - 2.5322e+08      -     -    0s
H    0     0                    2.537989e+08 2.5322e+08  0.23%     -    0s
H    0     0                    2.532427e+08 2.5322e+08  0.01%     -    0s
*    0     0               0    2.532211e+08 2.5322e+08  0.00%     -    0s

Cutting planes:
  Gomory: 12
  MIR: 24

Explored 1 nodes (450 simplex iterations) in 0.06 seconds
Thread count was 4 (of 4 available processors)

Solution count 3: 2.53221e+08 2.53243e+08 2.53799e+08 

Optimal solution found (tolerance 1.00e-08)
Best objective 2.532210915333e+08, best bound 2.532210915333e+08, gap 0.0000%
